c Staircase at least one
p cnf 538 1162
-17 215 0
-16 215 0
-215 17 16 0
-215 214 0
-15 214 0
-214 215 15 0
-214 213 0
-14 213 0
-213 214 14 0
-213 212 0
-13 212 0
-212 213 13 0
-212 211 0
-12 211 0
-211 212 12 0
-211 210 0
-11 210 0
-210 211 11 0
-210 209 0
-10 209 0
-209 210 10 0
-209 208 0
-9 208 0
-208 209 9 0
-208 207 0
-8 207 0
-207 208 8 0
-207 206 0
-7 206 0
-206 207 7 0
-206 205 0
-6 205 0
-205 206 6 0
-205 204 0
-5 204 0
-204 205 5 0
-204 203 0
-4 203 0
-203 204 4 0
-203 202 0
-3 202 0
-202 203 3 0
-202 201 0
-2 201 0
-201 202 2 0
-34 230 0
-33 230 0
-230 34 33 0
-230 229 0
-32 229 0
-229 230 32 0
-229 228 0
-31 228 0
-228 229 31 0
-228 227 0
-30 227 0
-227 228 30 0
-227 226 0
-29 226 0
-226 227 29 0
-226 225 0
-28 225 0
-225 226 28 0
-225 224 0
-27 224 0
-224 225 27 0
-224 223 0
-26 223 0
-223 224 26 0
-223 222 0
-25 222 0
-222 223 25 0
-222 221 0
-24 221 0
-221 222 24 0
-221 220 0
-23 220 0
-220 221 23 0
-220 219 0
-22 219 0
-219 220 22 0
-219 218 0
-21 218 0
-218 219 21 0
-218 217 0
-20 217 0
-217 218 20 0
-217 216 0
-19 216 0
-216 217 19 0
-51 245 0
-50 245 0
-245 51 50 0
-245 244 0
-49 244 0
-244 245 49 0
-244 243 0
-48 243 0
-243 244 48 0
-243 242 0
-47 242 0
-242 243 47 0
-242 241 0
-46 241 0
-241 242 46 0
-241 240 0
-45 240 0
-240 241 45 0
-240 239 0
-44 239 0
-239 240 44 0
-239 238 0
-43 238 0
-238 239 43 0
-238 237 0
-42 237 0
-237 238 42 0
-237 236 0
-41 236 0
-236 237 41 0
-236 235 0
-40 235 0
-235 236 40 0
-235 234 0
-39 234 0
-234 235 39 0
-234 233 0
-38 233 0
-233 234 38 0
-233 232 0
-37 232 0
-232 233 37 0
-232 231 0
-36 231 0
-231 232 36 0
-68 260 0
-67 260 0
-260 68 67 0
-260 259 0
-66 259 0
-259 260 66 0
-259 258 0
-65 258 0
-258 259 65 0
-258 257 0
-64 257 0
-257 258 64 0
-257 256 0
-63 256 0
-256 257 63 0
-256 255 0
-62 255 0
-255 256 62 0
-255 254 0
-61 254 0
-254 255 61 0
-254 253 0
-60 253 0
-253 254 60 0
-253 252 0
-59 252 0
-252 253 59 0
-252 251 0
-58 251 0
-251 252 58 0
-251 250 0
-57 250 0
-250 251 57 0
-250 249 0
-56 249 0
-249 250 56 0
-249 248 0
-55 248 0
-248 249 55 0
-248 247 0
-54 247 0
-247 248 54 0
-247 246 0
-53 246 0
-246 247 53 0
-85 275 0
-84 275 0
-275 85 84 0
-275 274 0
-83 274 0
-274 275 83 0
-274 273 0
-82 273 0
-273 274 82 0
-273 272 0
-81 272 0
-272 273 81 0
-272 271 0
-80 271 0
-271 272 80 0
-271 270 0
-79 270 0
-270 271 79 0
-270 269 0
-78 269 0
-269 270 78 0
-269 268 0
-77 268 0
-268 269 77 0
-268 267 0
-76 267 0
-267 268 76 0
-267 266 0
-75 266 0
-266 267 75 0
-266 265 0
-74 265 0
-265 266 74 0
-265 264 0
-73 264 0
-264 265 73 0
-264 263 0
-72 263 0
-263 264 72 0
-263 262 0
-71 262 0
-262 263 71 0
-262 261 0
-70 261 0
-261 262 70 0
-102 290 0
-101 290 0
-290 102 101 0
-290 289 0
-100 289 0
-289 290 100 0
-289 288 0
-99 288 0
-288 289 99 0
-288 287 0
-98 287 0
-287 288 98 0
-287 286 0
-97 286 0
-286 287 97 0
-286 285 0
-96 285 0
-285 286 96 0
-285 284 0
-95 284 0
-284 285 95 0
-284 283 0
-94 283 0
-283 284 94 0
-283 282 0
-93 282 0
-282 283 93 0
-282 281 0
-92 281 0
-281 282 92 0
-281 280 0
-91 280 0
-280 281 91 0
-280 279 0
-90 279 0
-279 280 90 0
-279 278 0
-89 278 0
-278 279 89 0
-278 277 0
-88 277 0
-277 278 88 0
-277 276 0
-87 276 0
-276 277 87 0
-119 305 0
-118 305 0
-305 119 118 0
-305 304 0
-117 304 0
-304 305 117 0
-304 303 0
-116 303 0
-303 304 116 0
-303 302 0
-115 302 0
-302 303 115 0
-302 301 0
-114 301 0
-301 302 114 0
-301 300 0
-113 300 0
-300 301 113 0
-300 299 0
-112 299 0
-299 300 112 0
-299 298 0
-111 298 0
-298 299 111 0
-298 297 0
-110 297 0
-297 298 110 0
-297 296 0
-109 296 0
-296 297 109 0
-296 295 0
-108 295 0
-295 296 108 0
-295 294 0
-107 294 0
-294 295 107 0
-294 293 0
-106 293 0
-293 294 106 0
-293 292 0
-105 292 0
-292 293 105 0
-292 291 0
-104 291 0
-291 292 104 0
-136 320 0
-135 320 0
-320 136 135 0
-320 319 0
-134 319 0
-319 320 134 0
-319 318 0
-133 318 0
-318 319 133 0
-318 317 0
-132 317 0
-317 318 132 0
-317 316 0
-131 316 0
-316 317 131 0
-316 315 0
-130 315 0
-315 316 130 0
-315 314 0
-129 314 0
-314 315 129 0
-314 313 0
-128 313 0
-313 314 128 0
-313 312 0
-127 312 0
-312 313 127 0
-312 311 0
-126 311 0
-311 312 126 0
-311 310 0
-125 310 0
-310 311 125 0
-310 309 0
-124 309 0
-309 310 124 0
-309 308 0
-123 308 0
-308 309 123 0
-308 307 0
-122 307 0
-307 308 122 0
-307 306 0
-121 306 0
-306 307 121 0
-153 335 0
-152 335 0
-335 153 152 0
-335 334 0
-151 334 0
-334 335 151 0
-334 333 0
-150 333 0
-333 334 150 0
-333 332 0
-149 332 0
-332 333 149 0
-332 331 0
-148 331 0
-331 332 148 0
-331 330 0
-147 330 0
-330 331 147 0
-330 329 0
-146 329 0
-329 330 146 0
-329 328 0
-145 328 0
-328 329 145 0
-328 327 0
-144 327 0
-327 328 144 0
-327 326 0
-143 326 0
-326 327 143 0
-326 325 0
-142 325 0
-325 326 142 0
-325 324 0
-141 324 0
-324 325 141 0
-324 323 0
-140 323 0
-323 324 140 0
-323 322 0
-139 322 0
-322 323 139 0
-322 321 0
-138 321 0
-321 322 138 0
-170 350 0
-169 350 0
-350 170 169 0
-350 349 0
-168 349 0
-349 350 168 0
-349 348 0
-167 348 0
-348 349 167 0
-348 347 0
-166 347 0
-347 348 166 0
-347 346 0
-165 346 0
-346 347 165 0
-346 345 0
-164 345 0
-345 346 164 0
-345 344 0
-163 344 0
-344 345 163 0
-344 343 0
-162 343 0
-343 344 162 0
-343 342 0
-161 342 0
-342 343 161 0
-342 341 0
-160 341 0
-341 342 160 0
-341 340 0
-159 340 0
-340 341 159 0
-340 339 0
-158 339 0
-339 340 158 0
-339 338 0
-157 338 0
-338 339 157 0
-338 337 0
-156 337 0
-337 338 156 0
-337 336 0
-155 336 0
-336 337 155 0
-187 365 0
-186 365 0
-365 187 186 0
-365 364 0
-185 364 0
-364 365 185 0
-364 363 0
-184 363 0
-363 364 184 0
-363 362 0
-183 362 0
-362 363 183 0
-362 361 0
-182 361 0
-361 362 182 0
-361 360 0
-181 360 0
-360 361 181 0
-360 359 0
-180 359 0
-359 360 180 0
-359 358 0
-179 358 0
-358 359 179 0
-358 357 0
-178 357 0
-357 358 178 0
-357 356 0
-177 356 0
-356 357 177 0
-356 355 0
-176 355 0
-355 356 176 0
-355 354 0
-175 354 0
-354 355 175 0
-354 353 0
-174 353 0
-353 354 174 0
-353 352 0
-173 352 0
-352 353 173 0
-352 351 0
-172 351 0
-351 352 172 0
-18 377 0
-19 377 0
-377 18 19 0
-377 378 0
-20 378 0
-378 377 20 0
-378 379 0
-21 379 0
-379 378 21 0
-379 380 0
-22 380 0
-380 379 22 0
-380 381 0
-23 381 0
-381 380 23 0
-381 382 0
-24 382 0
-382 381 24 0
-382 383 0
-25 383 0
-383 382 25 0
-383 384 0
-26 384 0
-384 383 26 0
-384 385 0
-27 385 0
-385 384 27 0
-385 386 0
-28 386 0
-386 385 28 0
-386 387 0
-29 387 0
-387 386 29 0
-387 388 0
-30 388 0
-388 387 30 0
-388 389 0
-31 389 0
-389 388 31 0
-389 390 0
-32 390 0
-390 389 32 0
-390 391 0
-33 391 0
-391 390 33 0
-35 392 0
-36 392 0
-392 35 36 0
-392 393 0
-37 393 0
-393 392 37 0
-393 394 0
-38 394 0
-394 393 38 0
-394 395 0
-39 395 0
-395 394 39 0
-395 396 0
-40 396 0
-396 395 40 0
-396 397 0
-41 397 0
-397 396 41 0
-397 398 0
-42 398 0
-398 397 42 0
-398 399 0
-43 399 0
-399 398 43 0
-399 400 0
-44 400 0
-400 399 44 0
-400 401 0
-45 401 0
-401 400 45 0
-401 402 0
-46 402 0
-402 401 46 0
-402 403 0
-47 403 0
-403 402 47 0
-403 404 0
-48 404 0
-404 403 48 0
-404 405 0
-49 405 0
-405 404 49 0
-405 406 0
-50 406 0
-406 405 50 0
-52 407 0
-53 407 0
-407 52 53 0
-407 408 0
-54 408 0
-408 407 54 0
-408 409 0
-55 409 0
-409 408 55 0
-409 410 0
-56 410 0
-410 409 56 0
-410 411 0
-57 411 0
-411 410 57 0
-411 412 0
-58 412 0
-412 411 58 0
-412 413 0
-59 413 0
-413 412 59 0
-413 414 0
-60 414 0
-414 413 60 0
-414 415 0
-61 415 0
-415 414 61 0
-415 416 0
-62 416 0
-416 415 62 0
-416 417 0
-63 417 0
-417 416 63 0
-417 418 0
-64 418 0
-418 417 64 0
-418 419 0
-65 419 0
-419 418 65 0
-419 420 0
-66 420 0
-420 419 66 0
-420 421 0
-67 421 0
-421 420 67 0
-69 422 0
-70 422 0
-422 69 70 0
-422 423 0
-71 423 0
-423 422 71 0
-423 424 0
-72 424 0
-424 423 72 0
-424 425 0
-73 425 0
-425 424 73 0
-425 426 0
-74 426 0
-426 425 74 0
-426 427 0
-75 427 0
-427 426 75 0
-427 428 0
-76 428 0
-428 427 76 0
-428 429 0
-77 429 0
-429 428 77 0
-429 430 0
-78 430 0
-430 429 78 0
-430 431 0
-79 431 0
-431 430 79 0
-431 432 0
-80 432 0
-432 431 80 0
-432 433 0
-81 433 0
-433 432 81 0
-433 434 0
-82 434 0
-434 433 82 0
-434 435 0
-83 435 0
-435 434 83 0
-435 436 0
-84 436 0
-436 435 84 0
-86 437 0
-87 437 0
-437 86 87 0
-437 438 0
-88 438 0
-438 437 88 0
-438 439 0
-89 439 0
-439 438 89 0
-439 440 0
-90 440 0
-440 439 90 0
-440 441 0
-91 441 0
-441 440 91 0
-441 442 0
-92 442 0
-442 441 92 0
-442 443 0
-93 443 0
-443 442 93 0
-443 444 0
-94 444 0
-444 443 94 0
-444 445 0
-95 445 0
-445 444 95 0
-445 446 0
-96 446 0
-446 445 96 0
-446 447 0
-97 447 0
-447 446 97 0
-447 448 0
-98 448 0
-448 447 98 0
-448 449 0
-99 449 0
-449 448 99 0
-449 450 0
-100 450 0
-450 449 100 0
-450 451 0
-101 451 0
-451 450 101 0
-103 452 0
-104 452 0
-452 103 104 0
-452 453 0
-105 453 0
-453 452 105 0
-453 454 0
-106 454 0
-454 453 106 0
-454 455 0
-107 455 0
-455 454 107 0
-455 456 0
-108 456 0
-456 455 108 0
-456 457 0
-109 457 0
-457 456 109 0
-457 458 0
-110 458 0
-458 457 110 0
-458 459 0
-111 459 0
-459 458 111 0
-459 460 0
-112 460 0
-460 459 112 0
-460 461 0
-113 461 0
-461 460 113 0
-461 462 0
-114 462 0
-462 461 114 0
-462 463 0
-115 463 0
-463 462 115 0
-463 464 0
-116 464 0
-464 463 116 0
-464 465 0
-117 465 0
-465 464 117 0
-465 466 0
-118 466 0
-466 465 118 0
-120 467 0
-121 467 0
-467 120 121 0
-467 468 0
-122 468 0
-468 467 122 0
-468 469 0
-123 469 0
-469 468 123 0
-469 470 0
-124 470 0
-470 469 124 0
-470 471 0
-125 471 0
-471 470 125 0
-471 472 0
-126 472 0
-472 471 126 0
-472 473 0
-127 473 0
-473 472 127 0
-473 474 0
-128 474 0
-474 473 128 0
-474 475 0
-129 475 0
-475 474 129 0
-475 476 0
-130 476 0
-476 475 130 0
-476 477 0
-131 477 0
-477 476 131 0
-477 478 0
-132 478 0
-478 477 132 0
-478 479 0
-133 479 0
-479 478 133 0
-479 480 0
-134 480 0
-480 479 134 0
-480 481 0
-135 481 0
-481 480 135 0
-137 482 0
-138 482 0
-482 137 138 0
-482 483 0
-139 483 0
-483 482 139 0
-483 484 0
-140 484 0
-484 483 140 0
-484 485 0
-141 485 0
-485 484 141 0
-485 486 0
-142 486 0
-486 485 142 0
-486 487 0
-143 487 0
-487 486 143 0
-487 488 0
-144 488 0
-488 487 144 0
-488 489 0
-145 489 0
-489 488 145 0
-489 490 0
-146 490 0
-490 489 146 0
-490 491 0
-147 491 0
-491 490 147 0
-491 492 0
-148 492 0
-492 491 148 0
-492 493 0
-149 493 0
-493 492 149 0
-493 494 0
-150 494 0
-494 493 150 0
-494 495 0
-151 495 0
-495 494 151 0
-495 496 0
-152 496 0
-496 495 152 0
-154 497 0
-155 497 0
-497 154 155 0
-497 498 0
-156 498 0
-498 497 156 0
-498 499 0
-157 499 0
-499 498 157 0
-499 500 0
-158 500 0
-500 499 158 0
-500 501 0
-159 501 0
-501 500 159 0
-501 502 0
-160 502 0
-502 501 160 0
-502 503 0
-161 503 0
-503 502 161 0
-503 504 0
-162 504 0
-504 503 162 0
-504 505 0
-163 505 0
-505 504 163 0
-505 506 0
-164 506 0
-506 505 164 0
-506 507 0
-165 507 0
-507 506 165 0
-507 508 0
-166 508 0
-508 507 166 0
-508 509 0
-167 509 0
-509 508 167 0
-509 510 0
-168 510 0
-510 509 168 0
-510 511 0
-169 511 0
-511 510 169 0
-171 512 0
-172 512 0
-512 171 172 0
-512 513 0
-173 513 0
-513 512 173 0
-513 514 0
-174 514 0
-514 513 174 0
-514 515 0
-175 515 0
-515 514 175 0
-515 516 0
-176 516 0
-516 515 176 0
-516 517 0
-177 517 0
-517 516 177 0
-517 518 0
-178 518 0
-518 517 178 0
-518 519 0
-179 519 0
-519 518 179 0
-519 520 0
-180 520 0
-520 519 180 0
-520 521 0
-181 521 0
-521 520 181 0
-521 522 0
-182 522 0
-522 521 182 0
-522 523 0
-183 523 0
-523 522 183 0
-523 524 0
-184 524 0
-524 523 184 0
-524 525 0
-185 525 0
-525 524 185 0
-525 526 0
-186 526 0
-526 525 186 0
-188 527 0
-189 527 0
-527 188 189 0
-527 528 0
-190 528 0
-528 527 190 0
-528 529 0
-191 529 0
-529 528 191 0
-529 530 0
-192 530 0
-530 529 192 0
-530 531 0
-193 531 0
-531 530 193 0
-531 532 0
-194 532 0
-532 531 194 0
-532 533 0
-195 533 0
-533 532 195 0
-533 534 0
-196 534 0
-534 533 196 0
-534 535 0
-197 535 0
-535 534 197 0
-535 536 0
-198 536 0
-536 535 198 0
-536 537 0
-199 537 0
-537 536 199 0
1 201 0
201 18 0
202 377 0
203 378 0
204 379 0
205 380 0
206 381 0
207 382 0
208 383 0
209 384 0
210 385 0
211 386 0
212 387 0
213 388 0
214 389 0
215 390 0
17 391 0
18 216 391 0
216 35 0
217 392 0
218 393 0
219 394 0
220 395 0
221 396 0
222 397 0
223 398 0
224 399 0
225 400 0
226 401 0
227 402 0
228 403 0
229 404 0
230 405 0
34 406 0
35 231 406 0
231 52 0
232 407 0
233 408 0
234 409 0
235 410 0
236 411 0
237 412 0
238 413 0
239 414 0
240 415 0
241 416 0
242 417 0
243 418 0
244 419 0
245 420 0
51 421 0
52 246 421 0
246 69 0
247 422 0
248 423 0
249 424 0
250 425 0
251 426 0
252 427 0
253 428 0
254 429 0
255 430 0
256 431 0
257 432 0
258 433 0
259 434 0
260 435 0
68 436 0
69 261 436 0
261 86 0
262 437 0
263 438 0
264 439 0
265 440 0
266 441 0
267 442 0
268 443 0
269 444 0
270 445 0
271 446 0
272 447 0
273 448 0
274 449 0
275 450 0
85 451 0
86 276 451 0
276 103 0
277 452 0
278 453 0
279 454 0
280 455 0
281 456 0
282 457 0
283 458 0
284 459 0
285 460 0
286 461 0
287 462 0
288 463 0
289 464 0
290 465 0
102 466 0
103 291 466 0
291 120 0
292 467 0
293 468 0
294 469 0
295 470 0
296 471 0
297 472 0
298 473 0
299 474 0
300 475 0
301 476 0
302 477 0
303 478 0
304 479 0
305 480 0
119 481 0
120 306 481 0
306 137 0
307 482 0
308 483 0
309 484 0
310 485 0
311 486 0
312 487 0
313 488 0
314 489 0
315 490 0
316 491 0
317 492 0
318 493 0
319 494 0
320 495 0
136 496 0
137 321 496 0
321 154 0
322 497 0
323 498 0
324 499 0
325 500 0
326 501 0
327 502 0
328 503 0
329 504 0
330 505 0
331 506 0
332 507 0
333 508 0
334 509 0
335 510 0
153 511 0
154 336 511 0
336 171 0
337 512 0
338 513 0
339 514 0
340 515 0
341 516 0
342 517 0
343 518 0
344 519 0
345 520 0
346 521 0
347 522 0
348 523 0
349 524 0
350 525 0
170 526 0
171 351 526 0
351 188 0
352 527 0
353 528 0
354 529 0
355 530 0
356 531 0
357 532 0
358 533 0
359 534 0
360 535 0
361 536 0
362 537 0
363 538 0
